Version identifier: 12.10.0.0 | 2019-11-26 | 843d4de
CPXPARAM_Read_DataCheck                          1
CPXPARAM_Threads                                 2
CPXPARAM_TimeLimit                               600
Tried aggregator 1 time.
MIQCP Presolve modified 1 coefficients.
Reduced MIQCP has 26 rows, 75 columns, and 99 nonzeros.
Reduced MIQCP has 25 binaries, 0 generals, 0 SOSs, and 0 indicators.
Reduced MIQCP has 1 quadratic constraints.
Presolve time = 0.02 sec. (0.06 ticks)
Probing time = 0.00 sec. (0.01 ticks)
MIP emphasis: balance optimality and feasibility.
MIP search method: dynamic search.
Parallel mode: deterministic, using up to 2 threads.
Root relaxation solution time = 0.01 sec. (0.03 ticks)

        Nodes                                         Cuts/
   Node  Left     Objective  IInf  Best Integer    Best Bound    ItCnt     Gap

      0     0      162.0000     0                    325.0000        0         
      0     0      160.4721     1                     Cone: 1        3         
      0     0       99.8015     1                     Cone: 2        6         
      0     0       96.0570     4                     Cone: 3        8         
      0     0       93.8407     6                     Cone: 4       12         
      0     0       92.5100     8                     Cone: 5       16         
      0     0       91.6356    10                     Cone: 6       19         
      0     0       60.8222    12                    Cone: 32       67         
      0     0       60.8195    30                    Cone: 48       84         
      0     0       60.8183    32                    Cone: 64      100         
      0     0       60.8179    34                    Cone: 78      115         
      0     0       60.8175    34                    Cone: 96      134         
      0     0       60.8172    36                   Cone: 113      151         
      0     0       60.8172    36                   Cone: 121      159         
      0     0       60.8172    36                   Cone: 122      160         
      0     0       60.8172    36                     60.8172      160         
*     0+    0                           -7.4965       60.8172           911.28%
*     0+    0                            9.4228       60.8172           545.43%
*     0+    0                           25.3755       60.8172           139.67%
      0     2       60.8172    36       25.3755       60.8172      160  139.67%
Elapsed time = 0.07 sec. (15.42 ticks, tree = 0.02 MB, solutions = 3)
*    54+   25                           26.0156       56.0659           115.51%
*    75+   45                           26.2390       55.2753           110.66%
*  2735   972      integral     0       26.2522       37.1255    17296   41.42%
*  3127+  904                           26.5344       35.3883            33.37%
*  4335    56      integral     0       26.9000       27.3219    29149    1.57%

Cone linearizations applied:  114

Root node processing (before b&c):
  Real time             =    0.07 sec. (15.36 ticks)
Parallel b&c, 2 threads:
  Real time             =    0.18 sec. (188.81 ticks)
  Sync time (average)   =    0.00 sec.
  Wait time (average)   =    0.00 sec.
                          ------------
Total (root+branch&cut) =    0.25 sec. (204.18 ticks)
